interface ihello
{
  in bool hello ();
  behavior
  {
    on hello: return true;
  }
}

component action_in_member_definition
{
  provides ihello p;
  requires ihello r;
  behavior
  {
    bool b = r.hello ();
  }
}
